(set-option :produce-models true)
(set-logic QF_LRA)
(set-info :notes | Strip-packing problem.|)
(declare-fun x0 () Real)
(declare-fun y0 () Real)
(declare-fun x1 () Real)
(declare-fun y1 () Real)
(declare-fun x2 () Real)
(declare-fun y2 () Real)
(declare-fun x3 () Real)
(declare-fun y3 () Real)
(declare-fun x4 () Real)
(declare-fun y4 () Real)
(declare-fun x5 () Real)
(declare-fun y5 () Real)
(declare-fun x6 () Real)
(declare-fun y6 () Real)
(declare-fun x7 () Real)
(declare-fun y7 () Real)
(declare-fun x8 () Real)
(declare-fun y8 () Real)
(declare-fun x9 () Real)
(declare-fun y9 () Real)
(declare-fun x10 () Real)
(declare-fun y10 () Real)
(declare-fun x11 () Real)
(declare-fun y11 () Real)
(declare-fun x12 () Real)
(declare-fun y12 () Real)
(declare-fun x13 () Real)
(declare-fun y13 () Real)
(declare-fun x14 () Real)
(declare-fun y14 () Real)
(declare-fun z () Real)
(declare-fun c () Real)
(assert (and (= c z) (and (>= x0 0) 
(and (>= y0 0) 
(and (>= x1 0) 
(and (>= y1 0) 
(and (>= x2 0) 
(and (>= y2 0) 
(and (>= x3 0) 
(and (>= y3 0) 
(and (>= x4 0) 
(and (>= y4 0) 
(and (>= x5 0) 
(and (>= y5 0) 
(and (>= x6 0) 
(and (>= y6 0) 
(and (>= x7 0) 
(and (>= y7 0) 
(and (>= x8 0) 
(and (>= y8 0) 
(and (>= x9 0) 
(and (>= y9 0) 
(and (>= x10 0) 
(and (>= y10 0) 
(and (>= x11 0) 
(and (>= y11 0) 
(and (>= x12 0) 
(and (>= y12 0) 
(and (>= x13 0) 
(and (>= y13 0) 
(and (>= x14 0) 
(and (>= y14 0) 
(and (>= z 0) 
(and (>= c 0) 
(and (<= (+ x0 0.0237448944) z) 
(and (<= 0.9534173194 y0) 
(and (<= y0 1.0) 
(and (<= x0 (- 6.6441171934 0.0237448944)) 
(and (>= x0 0) 
(and (<= (+ x1 0.349065527) z) 
(and (<= 0.9275637133 y1) 
(and (<= y1 1.0) 
(and (<= x1 (- 6.6441171934 0.349065527)) 
(and (>= x1 0) 
(and (<= (+ x2 0.9301445764) z) 
(and (<= 0.9092869867 y2) 
(and (<= y2 1.0) 
(and (<= x2 (- 6.6441171934 0.9301445764)) 
(and (>= x2 0) 
(and (<= (+ x3 0.8557449166) z) 
(and (<= 0.8822077619 y3) 
(and (<= y3 1.0) 
(and (<= x3 (- 6.6441171934 0.8557449166)) 
(and (>= x3 0) 
(and (<= (+ x4 0.6761672352) z) 
(and (<= 0.8491508261 y4) 
(and (<= y4 1.0) 
(and (<= x4 (- 6.6441171934 0.6761672352)) 
(and (>= x4 0) 
(and (<= (+ x5 0.8761980389) z) 
(and (<= 0.7767610354 y5) 
(and (<= y5 1.0) 
(and (<= x5 (- 6.6441171934 0.8761980389)) 
(and (>= x5 0) 
(and (<= (+ x6 0.141531541) z) 
(and (<= 0.7103907137 y6) 
(and (<= y6 1.0) 
(and (<= x6 (- 6.6441171934 0.141531541)) 
(and (>= x6 0) 
(and (<= (+ x7 0.4641179957) z) 
(and (<= 0.6343110831 y7) 
(and (<= y7 1.0) 
(and (<= x7 (- 6.6441171934 0.4641179957)) 
(and (>= x7 0) 
(and (<= (+ x8 0.4228970514) z) 
(and (<= 0.6033195253 y8) 
(and (<= y8 1.0) 
(and (<= x8 (- 6.6441171934 0.4228970514)) 
(and (>= x8 0) 
(and (<= (+ x9 0.9625043416) z) 
(and (<= 0.5663543163 y9) 
(and (<= y9 1.0) 
(and (<= x9 (- 6.6441171934 0.9625043416)) 
(and (>= x9 0) 
(and (<= (+ x10 0.9420010752) z) 
(and (<= 0.4925642668 y10) 
(and (<= y10 1.0) 
(and (<= x10 (- 6.6441171934 0.9420010752)) 
(and (>= x10 0) 
(and (<= (+ x11 0.8192736201) z) 
(and (<= 0.4183998363 y11) 
(and (<= y11 1.0) 
(and (<= x11 (- 6.6441171934 0.8192736201)) 
(and (>= x11 0) 
(and (<= (+ x12 0.6915181759) z) 
(and (<= 0.1838736409 y12) 
(and (<= y12 1.0) 
(and (<= x12 (- 6.6441171934 0.6915181759)) 
(and (>= x12 0) 
(and (<= (+ x13 0.5754808109) z) 
(and (<= 0.1731478753 y13) 
(and (<= y13 1.0) 
(and (<= x13 (- 6.6441171934 0.5754808109)) 
(and (>= x13 0) 
(and (<= (+ x14 0.3725667776) z) 
(and (<= 0.0522910575 y14) 
(and (<= y14 1.0) 
(and (<= x14 (- 6.6441171934 0.3725667776)) 
(and (>= x14 0) 
(and (<= c 6.6441171934) 
(and (or (<= (+ x0 0.0237448944) x1) (or (<= (+ x1 0.349065527) x0) (or (>= (- y0 0.9534173194) y1) (or (>= (- y1 0.9275637133) y0))))) 
(and (or (<= (+ x0 0.0237448944) x2) (or (<= (+ x2 0.9301445764) x0) (or (>= (- y0 0.9534173194) y2) (or (>= (- y2 0.9092869867) y0))))) 
(and (or (<= (+ x0 0.0237448944) x3) (or (<= (+ x3 0.8557449166) x0) (or (>= (- y0 0.9534173194) y3) (or (>= (- y3 0.8822077619) y0))))) 
(and (or (<= (+ x0 0.0237448944) x4) (or (<= (+ x4 0.6761672352) x0) (or (>= (- y0 0.9534173194) y4) (or (>= (- y4 0.8491508261) y0))))) 
(and (or (<= (+ x0 0.0237448944) x5) (or (<= (+ x5 0.8761980389) x0) (or (>= (- y0 0.9534173194) y5) (or (>= (- y5 0.7767610354) y0))))) 
(and (or (<= (+ x0 0.0237448944) x6) (or (<= (+ x6 0.141531541) x0) (or (>= (- y0 0.9534173194) y6) (or (>= (- y6 0.7103907137) y0))))) 
(and (or (<= (+ x0 0.0237448944) x7) (or (<= (+ x7 0.4641179957) x0) (or (>= (- y0 0.9534173194) y7) (or (>= (- y7 0.6343110831) y0))))) 
(and (or (<= (+ x0 0.0237448944) x8) (or (<= (+ x8 0.4228970514) x0) (or (>= (- y0 0.9534173194) y8) (or (>= (- y8 0.6033195253) y0))))) 
(and (or (<= (+ x0 0.0237448944) x9) (or (<= (+ x9 0.9625043416) x0) (or (>= (- y0 0.9534173194) y9) (or (>= (- y9 0.5663543163) y0))))) 
(and (or (<= (+ x0 0.0237448944) x10) (or (<= (+ x10 0.9420010752) x0) (or (>= (- y0 0.9534173194) y10) (or (>= (- y10 0.4925642668) y0))))) 
(and (or (<= (+ x0 0.0237448944) x11) (or (<= (+ x11 0.8192736201) x0) (or (>= (- y0 0.9534173194) y11) (or (>= (- y11 0.4183998363) y0))))) 
(and (or (<= (+ x0 0.0237448944) x12) (or (<= (+ x12 0.6915181759) x0) (or (>= (- y0 0.9534173194) y12) (or (>= (- y12 0.1838736409) y0))))) 
(and (or (<= (+ x0 0.0237448944) x13) (or (<= (+ x13 0.5754808109) x0) (or (>= (- y0 0.9534173194) y13) (or (>= (- y13 0.1731478753) y0))))) 
(and (or (<= (+ x0 0.0237448944) x14) (or (<= (+ x14 0.3725667776) x0) (or (>= (- y0 0.9534173194) y14) (or (>= (- y14 0.0522910575) y0))))) 
(and (or (<= (+ x1 0.349065527) x2) (or (<= (+ x2 0.9301445764) x1) (or (>= (- y1 0.9275637133) y2) (or (>= (- y2 0.9092869867) y1))))) 
(and (or (<= (+ x1 0.349065527) x3) (or (<= (+ x3 0.8557449166) x1) (or (>= (- y1 0.9275637133) y3) (or (>= (- y3 0.8822077619) y1))))) 
(and (or (<= (+ x1 0.349065527) x4) (or (<= (+ x4 0.6761672352) x1) (or (>= (- y1 0.9275637133) y4) (or (>= (- y4 0.8491508261) y1))))) 
(and (or (<= (+ x1 0.349065527) x5) (or (<= (+ x5 0.8761980389) x1) (or (>= (- y1 0.9275637133) y5) (or (>= (- y5 0.7767610354) y1))))) 
(and (or (<= (+ x1 0.349065527) x6) (or (<= (+ x6 0.141531541) x1) (or (>= (- y1 0.9275637133) y6) (or (>= (- y6 0.7103907137) y1))))) 
(and (or (<= (+ x1 0.349065527) x7) (or (<= (+ x7 0.4641179957) x1) (or (>= (- y1 0.9275637133) y7) (or (>= (- y7 0.6343110831) y1))))) 
(and (or (<= (+ x1 0.349065527) x8) (or (<= (+ x8 0.4228970514) x1) (or (>= (- y1 0.9275637133) y8) (or (>= (- y8 0.6033195253) y1))))) 
(and (or (<= (+ x1 0.349065527) x9) (or (<= (+ x9 0.9625043416) x1) (or (>= (- y1 0.9275637133) y9) (or (>= (- y9 0.5663543163) y1))))) 
(and (or (<= (+ x1 0.349065527) x10) (or (<= (+ x10 0.9420010752) x1) (or (>= (- y1 0.9275637133) y10) (or (>= (- y10 0.4925642668) y1))))) 
(and (or (<= (+ x1 0.349065527) x11) (or (<= (+ x11 0.8192736201) x1) (or (>= (- y1 0.9275637133) y11) (or (>= (- y11 0.4183998363) y1))))) 
(and (or (<= (+ x1 0.349065527) x12) (or (<= (+ x12 0.6915181759) x1) (or (>= (- y1 0.9275637133) y12) (or (>= (- y12 0.1838736409) y1))))) 
(and (or (<= (+ x1 0.349065527) x13) (or (<= (+ x13 0.5754808109) x1) (or (>= (- y1 0.9275637133) y13) (or (>= (- y13 0.1731478753) y1))))) 
(and (or (<= (+ x1 0.349065527) x14) (or (<= (+ x14 0.3725667776) x1) (or (>= (- y1 0.9275637133) y14) (or (>= (- y14 0.0522910575) y1))))) 
(and (or (<= (+ x2 0.9301445764) x3) (or (<= (+ x3 0.8557449166) x2) (or (>= (- y2 0.9092869867) y3) (or (>= (- y3 0.8822077619) y2))))) 
(and (or (<= (+ x2 0.9301445764) x4) (or (<= (+ x4 0.6761672352) x2) (or (>= (- y2 0.9092869867) y4) (or (>= (- y4 0.8491508261) y2))))) 
(and (or (<= (+ x2 0.9301445764) x5) (or (<= (+ x5 0.8761980389) x2) (or (>= (- y2 0.9092869867) y5) (or (>= (- y5 0.7767610354) y2))))) 
(and (or (<= (+ x2 0.9301445764) x6) (or (<= (+ x6 0.141531541) x2) (or (>= (- y2 0.9092869867) y6) (or (>= (- y6 0.7103907137) y2))))) 
(and (or (<= (+ x2 0.9301445764) x7) (or (<= (+ x7 0.4641179957) x2) (or (>= (- y2 0.9092869867) y7) (or (>= (- y7 0.6343110831) y2))))) 
(and (or (<= (+ x2 0.9301445764) x8) (or (<= (+ x8 0.4228970514) x2) (or (>= (- y2 0.9092869867) y8) (or (>= (- y8 0.6033195253) y2))))) 
(and (or (<= (+ x2 0.9301445764) x9) (or (<= (+ x9 0.9625043416) x2) (or (>= (- y2 0.9092869867) y9) (or (>= (- y9 0.5663543163) y2))))) 
(and (or (<= (+ x2 0.9301445764) x10) (or (<= (+ x10 0.9420010752) x2) (or (>= (- y2 0.9092869867) y10) (or (>= (- y10 0.4925642668) y2))))) 
(and (or (<= (+ x2 0.9301445764) x11) (or (<= (+ x11 0.8192736201) x2) (or (>= (- y2 0.9092869867) y11) (or (>= (- y11 0.4183998363) y2))))) 
(and (or (<= (+ x2 0.9301445764) x12) (or (<= (+ x12 0.6915181759) x2) (or (>= (- y2 0.9092869867) y12) (or (>= (- y12 0.1838736409) y2))))) 
(and (or (<= (+ x2 0.9301445764) x13) (or (<= (+ x13 0.5754808109) x2) (or (>= (- y2 0.9092869867) y13) (or (>= (- y13 0.1731478753) y2))))) 
(and (or (<= (+ x2 0.9301445764) x14) (or (<= (+ x14 0.3725667776) x2) (or (>= (- y2 0.9092869867) y14) (or (>= (- y14 0.0522910575) y2))))) 
(and (or (<= (+ x3 0.8557449166) x4) (or (<= (+ x4 0.6761672352) x3) (or (>= (- y3 0.8822077619) y4) (or (>= (- y4 0.8491508261) y3))))) 
(and (or (<= (+ x3 0.8557449166) x5) (or (<= (+ x5 0.8761980389) x3) (or (>= (- y3 0.8822077619) y5) (or (>= (- y5 0.7767610354) y3))))) 
(and (or (<= (+ x3 0.8557449166) x6) (or (<= (+ x6 0.141531541) x3) (or (>= (- y3 0.8822077619) y6) (or (>= (- y6 0.7103907137) y3))))) 
(and (or (<= (+ x3 0.8557449166) x7) (or (<= (+ x7 0.4641179957) x3) (or (>= (- y3 0.8822077619) y7) (or (>= (- y7 0.6343110831) y3))))) 
(and (or (<= (+ x3 0.8557449166) x8) (or (<= (+ x8 0.4228970514) x3) (or (>= (- y3 0.8822077619) y8) (or (>= (- y8 0.6033195253) y3))))) 
(and (or (<= (+ x3 0.8557449166) x9) (or (<= (+ x9 0.9625043416) x3) (or (>= (- y3 0.8822077619) y9) (or (>= (- y9 0.5663543163) y3))))) 
(and (or (<= (+ x3 0.8557449166) x10) (or (<= (+ x10 0.9420010752) x3) (or (>= (- y3 0.8822077619) y10) (or (>= (- y10 0.4925642668) y3))))) 
(and (or (<= (+ x3 0.8557449166) x11) (or (<= (+ x11 0.8192736201) x3) (or (>= (- y3 0.8822077619) y11) (or (>= (- y11 0.4183998363) y3))))) 
(and (or (<= (+ x3 0.8557449166) x12) (or (<= (+ x12 0.6915181759) x3) (or (>= (- y3 0.8822077619) y12) (or (>= (- y12 0.1838736409) y3))))) 
(and (or (<= (+ x3 0.8557449166) x13) (or (<= (+ x13 0.5754808109) x3) (or (>= (- y3 0.8822077619) y13) (or (>= (- y13 0.1731478753) y3))))) 
(and (or (<= (+ x3 0.8557449166) x14) (or (<= (+ x14 0.3725667776) x3) (or (>= (- y3 0.8822077619) y14) (or (>= (- y14 0.0522910575) y3))))) 
(and (or (<= (+ x4 0.6761672352) x5) (or (<= (+ x5 0.8761980389) x4) (or (>= (- y4 0.8491508261) y5) (or (>= (- y5 0.7767610354) y4))))) 
(and (or (<= (+ x4 0.6761672352) x6) (or (<= (+ x6 0.141531541) x4) (or (>= (- y4 0.8491508261) y6) (or (>= (- y6 0.7103907137) y4))))) 
(and (or (<= (+ x4 0.6761672352) x7) (or (<= (+ x7 0.4641179957) x4) (or (>= (- y4 0.8491508261) y7) (or (>= (- y7 0.6343110831) y4))))) 
(and (or (<= (+ x4 0.6761672352) x8) (or (<= (+ x8 0.4228970514) x4) (or (>= (- y4 0.8491508261) y8) (or (>= (- y8 0.6033195253) y4))))) 
(and (or (<= (+ x4 0.6761672352) x9) (or (<= (+ x9 0.9625043416) x4) (or (>= (- y4 0.8491508261) y9) (or (>= (- y9 0.5663543163) y4))))) 
(and (or (<= (+ x4 0.6761672352) x10) (or (<= (+ x10 0.9420010752) x4) (or (>= (- y4 0.8491508261) y10) (or (>= (- y10 0.4925642668) y4))))) 
(and (or (<= (+ x4 0.6761672352) x11) (or (<= (+ x11 0.8192736201) x4) (or (>= (- y4 0.8491508261) y11) (or (>= (- y11 0.4183998363) y4))))) 
(and (or (<= (+ x4 0.6761672352) x12) (or (<= (+ x12 0.6915181759) x4) (or (>= (- y4 0.8491508261) y12) (or (>= (- y12 0.1838736409) y4))))) 
(and (or (<= (+ x4 0.6761672352) x13) (or (<= (+ x13 0.5754808109) x4) (or (>= (- y4 0.8491508261) y13) (or (>= (- y13 0.1731478753) y4))))) 
(and (or (<= (+ x4 0.6761672352) x14) (or (<= (+ x14 0.3725667776) x4) (or (>= (- y4 0.8491508261) y14) (or (>= (- y14 0.0522910575) y4))))) 
(and (or (<= (+ x5 0.8761980389) x6) (or (<= (+ x6 0.141531541) x5) (or (>= (- y5 0.7767610354) y6) (or (>= (- y6 0.7103907137) y5))))) 
(and (or (<= (+ x5 0.8761980389) x7) (or (<= (+ x7 0.4641179957) x5) (or (>= (- y5 0.7767610354) y7) (or (>= (- y7 0.6343110831) y5))))) 
(and (or (<= (+ x5 0.8761980389) x8) (or (<= (+ x8 0.4228970514) x5) (or (>= (- y5 0.7767610354) y8) (or (>= (- y8 0.6033195253) y5))))) 
(and (or (<= (+ x5 0.8761980389) x9) (or (<= (+ x9 0.9625043416) x5) (or (>= (- y5 0.7767610354) y9) (or (>= (- y9 0.5663543163) y5))))) 
(and (or (<= (+ x5 0.8761980389) x10) (or (<= (+ x10 0.9420010752) x5) (or (>= (- y5 0.7767610354) y10) (or (>= (- y10 0.4925642668) y5))))) 
(and (or (<= (+ x5 0.8761980389) x11) (or (<= (+ x11 0.8192736201) x5) (or (>= (- y5 0.7767610354) y11) (or (>= (- y11 0.4183998363) y5))))) 
(and (or (<= (+ x5 0.8761980389) x12) (or (<= (+ x12 0.6915181759) x5) (or (>= (- y5 0.7767610354) y12) (or (>= (- y12 0.1838736409) y5))))) 
(and (or (<= (+ x5 0.8761980389) x13) (or (<= (+ x13 0.5754808109) x5) (or (>= (- y5 0.7767610354) y13) (or (>= (- y13 0.1731478753) y5))))) 
(and (or (<= (+ x5 0.8761980389) x14) (or (<= (+ x14 0.3725667776) x5) (or (>= (- y5 0.7767610354) y14) (or (>= (- y14 0.0522910575) y5))))) 
(and (or (<= (+ x6 0.141531541) x7) (or (<= (+ x7 0.4641179957) x6) (or (>= (- y6 0.7103907137) y7) (or (>= (- y7 0.6343110831) y6))))) 
(and (or (<= (+ x6 0.141531541) x8) (or (<= (+ x8 0.4228970514) x6) (or (>= (- y6 0.7103907137) y8) (or (>= (- y8 0.6033195253) y6))))) 
(and (or (<= (+ x6 0.141531541) x9) (or (<= (+ x9 0.9625043416) x6) (or (>= (- y6 0.7103907137) y9) (or (>= (- y9 0.5663543163) y6))))) 
(and (or (<= (+ x6 0.141531541) x10) (or (<= (+ x10 0.9420010752) x6) (or (>= (- y6 0.7103907137) y10) (or (>= (- y10 0.4925642668) y6))))) 
(and (or (<= (+ x6 0.141531541) x11) (or (<= (+ x11 0.8192736201) x6) (or (>= (- y6 0.7103907137) y11) (or (>= (- y11 0.4183998363) y6))))) 
(and (or (<= (+ x6 0.141531541) x12) (or (<= (+ x12 0.6915181759) x6) (or (>= (- y6 0.7103907137) y12) (or (>= (- y12 0.1838736409) y6))))) 
(and (or (<= (+ x6 0.141531541) x13) (or (<= (+ x13 0.5754808109) x6) (or (>= (- y6 0.7103907137) y13) (or (>= (- y13 0.1731478753) y6))))) 
(and (or (<= (+ x6 0.141531541) x14) (or (<= (+ x14 0.3725667776) x6) (or (>= (- y6 0.7103907137) y14) (or (>= (- y14 0.0522910575) y6))))) 
(and (or (<= (+ x7 0.4641179957) x8) (or (<= (+ x8 0.4228970514) x7) (or (>= (- y7 0.6343110831) y8) (or (>= (- y8 0.6033195253) y7))))) 
(and (or (<= (+ x7 0.4641179957) x9) (or (<= (+ x9 0.9625043416) x7) (or (>= (- y7 0.6343110831) y9) (or (>= (- y9 0.5663543163) y7))))) 
(and (or (<= (+ x7 0.4641179957) x10) (or (<= (+ x10 0.9420010752) x7) (or (>= (- y7 0.6343110831) y10) (or (>= (- y10 0.4925642668) y7))))) 
(and (or (<= (+ x7 0.4641179957) x11) (or (<= (+ x11 0.8192736201) x7) (or (>= (- y7 0.6343110831) y11) (or (>= (- y11 0.4183998363) y7))))) 
(and (or (<= (+ x7 0.4641179957) x12) (or (<= (+ x12 0.6915181759) x7) (or (>= (- y7 0.6343110831) y12) (or (>= (- y12 0.1838736409) y7))))) 
(and (or (<= (+ x7 0.4641179957) x13) (or (<= (+ x13 0.5754808109) x7) (or (>= (- y7 0.6343110831) y13) (or (>= (- y13 0.1731478753) y7))))) 
(and (or (<= (+ x7 0.4641179957) x14) (or (<= (+ x14 0.3725667776) x7) (or (>= (- y7 0.6343110831) y14) (or (>= (- y14 0.0522910575) y7))))) 
(and (or (<= (+ x8 0.4228970514) x9) (or (<= (+ x9 0.9625043416) x8) (or (>= (- y8 0.6033195253) y9) (or (>= (- y9 0.5663543163) y8))))) 
(and (or (<= (+ x8 0.4228970514) x10) (or (<= (+ x10 0.9420010752) x8) (or (>= (- y8 0.6033195253) y10) (or (>= (- y10 0.4925642668) y8))))) 
(and (or (<= (+ x8 0.4228970514) x11) (or (<= (+ x11 0.8192736201) x8) (or (>= (- y8 0.6033195253) y11) (or (>= (- y11 0.4183998363) y8))))) 
(and (or (<= (+ x8 0.4228970514) x12) (or (<= (+ x12 0.6915181759) x8) (or (>= (- y8 0.6033195253) y12) (or (>= (- y12 0.1838736409) y8))))) 
(and (or (<= (+ x8 0.4228970514) x13) (or (<= (+ x13 0.5754808109) x8) (or (>= (- y8 0.6033195253) y13) (or (>= (- y13 0.1731478753) y8))))) 
(and (or (<= (+ x8 0.4228970514) x14) (or (<= (+ x14 0.3725667776) x8) (or (>= (- y8 0.6033195253) y14) (or (>= (- y14 0.0522910575) y8))))) 
(and (or (<= (+ x9 0.9625043416) x10) (or (<= (+ x10 0.9420010752) x9) (or (>= (- y9 0.5663543163) y10) (or (>= (- y10 0.4925642668) y9))))) 
(and (or (<= (+ x9 0.9625043416) x11) (or (<= (+ x11 0.8192736201) x9) (or (>= (- y9 0.5663543163) y11) (or (>= (- y11 0.4183998363) y9))))) 
(and (or (<= (+ x9 0.9625043416) x12) (or (<= (+ x12 0.6915181759) x9) (or (>= (- y9 0.5663543163) y12) (or (>= (- y12 0.1838736409) y9))))) 
(and (or (<= (+ x9 0.9625043416) x13) (or (<= (+ x13 0.5754808109) x9) (or (>= (- y9 0.5663543163) y13) (or (>= (- y13 0.1731478753) y9))))) 
(and (or (<= (+ x9 0.9625043416) x14) (or (<= (+ x14 0.3725667776) x9) (or (>= (- y9 0.5663543163) y14) (or (>= (- y14 0.0522910575) y9))))) 
(and (or (<= (+ x10 0.9420010752) x11) (or (<= (+ x11 0.8192736201) x10) (or (>= (- y10 0.4925642668) y11) (or (>= (- y11 0.4183998363) y10))))) 
(and (or (<= (+ x10 0.9420010752) x12) (or (<= (+ x12 0.6915181759) x10) (or (>= (- y10 0.4925642668) y12) (or (>= (- y12 0.1838736409) y10))))) 
(and (or (<= (+ x10 0.9420010752) x13) (or (<= (+ x13 0.5754808109) x10) (or (>= (- y10 0.4925642668) y13) (or (>= (- y13 0.1731478753) y10))))) 
(and (or (<= (+ x10 0.9420010752) x14) (or (<= (+ x14 0.3725667776) x10) (or (>= (- y10 0.4925642668) y14) (or (>= (- y14 0.0522910575) y10))))) 
(and (or (<= (+ x11 0.8192736201) x12) (or (<= (+ x12 0.6915181759) x11) (or (>= (- y11 0.4183998363) y12) (or (>= (- y12 0.1838736409) y11))))) 
(and (or (<= (+ x11 0.8192736201) x13) (or (<= (+ x13 0.5754808109) x11) (or (>= (- y11 0.4183998363) y13) (or (>= (- y13 0.1731478753) y11))))) 
(and (or (<= (+ x11 0.8192736201) x14) (or (<= (+ x14 0.3725667776) x11) (or (>= (- y11 0.4183998363) y14) (or (>= (- y14 0.0522910575) y11))))) 
(and (or (<= (+ x12 0.6915181759) x13) (or (<= (+ x13 0.5754808109) x12) (or (>= (- y12 0.1838736409) y13) (or (>= (- y13 0.1731478753) y12))))) 
(and (or (<= (+ x12 0.6915181759) x14) (or (<= (+ x14 0.3725667776) x12) (or (>= (- y12 0.1838736409) y14) (or (>= (- y14 0.0522910575) y12))))) 
(and (or (<= (+ x13 0.5754808109) x14) (or (<= (+ x14 0.3725667776) x13) (or (>= (- y13 0.1731478753) y14) (or (>= (- y14 0.0522910575) y13))))) )))))))))))))))))))))))))))))))))))))))))))))))))))))))))))))))))))))))))))))))))))))))))))))))))))))))))))))))))))))))))))))))))))))))))))))))))))))))))))))))))))))))))))))))))))))))))))))))))))))))))))))))))))))))
(minimize c)
(check-sat)
(get-objectives)
(exit)
